(set-logic ALL)

; Normalized Portuguese Bank Dataset
; Column-slice encoding
; Numeric column: duration (index 11)

(define-fun m () Int 300)
(define-fun n () Int 1)

(declare-const O (Array Int Real))

(assert (= (select O 0) -0.744953))
(assert (= (select O 1) -0.853274))
(assert (= (select O 2) -0.927129))
(assert (= (select O 3) -0.911374))
(assert (= (select O 4) -0.806992))
(assert (= (select O 5) -0.865091))
(assert (= (select O 6) -0.788282))
(assert (= (select O 7) -0.627770))
(assert (= (select O 8) -0.952733))
(assert (= (select O 9) -0.947809))
(assert (= (select O 10) -0.783358))
(assert (= (select O 11) -0.867061))
(assert (= (select O 12) -0.492861))
(assert (= (select O 13) -0.932053))
(assert (= (select O 14) -0.830625))
(assert (= (select O 15) -0.654357))
(assert (= (select O 16) -0.905465))
(assert (= (select O 17) -0.964549))
(assert (= (select O 18) -0.786312))
(assert (= (select O 19) -0.948794))
(assert (= (select O 20) -0.743968))
(assert (= (select O 21) -0.840473))
(assert (= (select O 22) -0.844412))
(assert (= (select O 23) -0.665190))
(assert (= (select O 24) -0.823732))
(assert (= (select O 25) -0.832595))
(assert (= (select O 26) -0.710487))
(assert (= (select O 27) -0.876908))
(assert (= (select O 28) -0.750862))
(assert (= (select O 29) -0.659281))
(assert (= (select O 30) -0.780404))
(assert (= (select O 31) -0.775480))
(assert (= (select O 32) -0.797144))
(assert (= (select O 33) -0.779419))
(assert (= (select O 34) -0.671098))
(assert (= (select O 35) -0.763663))
(assert (= (select O 36) -0.642541))
(assert (= (select O 37) 0.638602))
(assert (= (select O 38) -0.433776))
(assert (= (select O 39) -0.867061))
(assert (= (select O 40) -0.844412))
(assert (= (select O 41) -0.824717))
(assert (= (select O 42) -0.980305))
(assert (= (select O 43) 0.467258))
(assert (= (select O 44) -0.395372))
(assert (= (select O 45) -0.763663))
(assert (= (select O 46) -0.652388))
(assert (= (select O 47) -0.780404))
(assert (= (select O 48) -0.844412))
(assert (= (select O 49) -0.644510))
(assert (= (select O 50) -0.740030))
(assert (= (select O 51) -0.752831))
(assert (= (select O 52) -0.825702))
(assert (= (select O 53) -0.226982))
(assert (= (select O 54) -0.859183))
(assert (= (select O 55) -0.830625))
(assert (= (select O 56) -0.899557))
(assert (= (select O 57) -0.989168))
(assert (= (select O 58) -0.819793))
(assert (= (select O 59) 0.748892))
(assert (= (select O 60) -0.866076))
(assert (= (select O 61) -0.202363))
(assert (= (select O 62) -0.840473))
(assert (= (select O 63) -0.616937))
(assert (= (select O 64) -0.650419))
(assert (= (select O 65) -0.912358))
(assert (= (select O 66) -0.482029))
(assert (= (select O 67) -0.733136))
(assert (= (select O 68) -0.846381))
(assert (= (select O 69) -0.827671))
(assert (= (select O 70) -0.747907))
(assert (= (select O 71) -0.832595))
(assert (= (select O 72) -0.850320))
(assert (= (select O 73) -0.715411))
(assert (= (select O 74) -0.823732))
(assert (= (select O 75) -0.828656))
(assert (= (select O 76) -0.794190))
(assert (= (select O 77) -0.658296))
(assert (= (select O 78) -0.734121))
(assert (= (select O 79) -0.797144))
(assert (= (select O 80) -0.811915))
(assert (= (select O 81) -0.793205))
(assert (= (select O 82) -0.982275))
(assert (= (select O 83) 0.024126))
(assert (= (select O 84) -0.759724))
(assert (= (select O 85) -0.481044))
(assert (= (select O 86) 0.442639))
(assert (= (select O 87) 0.365830))
(assert (= (select O 88) -0.816839))
(assert (= (select O 89) -0.824717))
(assert (= (select O 90) -0.954702))
(assert (= (select O 91) -0.792221))
(assert (= (select O 92) -0.427868))
(assert (= (select O 93) -0.784343))
(assert (= (select O 94) -0.831610))
(assert (= (select O 95) -0.582472))
(assert (= (select O 96) -0.719350))
(assert (= (select O 97) -0.902511))
(assert (= (select O 98) -0.802068))
(assert (= (select O 99) -0.807976))
(assert (= (select O 100) -0.748892))
(assert (= (select O 101) -0.879862))
(assert (= (select O 102) -0.776465))
(assert (= (select O 103) -0.947809))
(assert (= (select O 104) -0.608075))
(assert (= (select O 105) -0.807976))
(assert (= (select O 106) -0.814870))
(assert (= (select O 107) -0.981290))
(assert (= (select O 108) -0.495815))
(assert (= (select O 109) -0.165928))
(assert (= (select O 110) -0.810931))
(assert (= (select O 111) -0.860167))
(assert (= (select O 112) -0.793205))
(assert (= (select O 113) -0.720335))
(assert (= (select O 114) -0.896603))
(assert (= (select O 115) -0.758740))
(assert (= (select O 116) -0.491876))
(assert (= (select O 117) -0.643525))
(assert (= (select O 118) -0.826686))
(assert (= (select O 119) -0.905465))
(assert (= (select O 120) -0.569670))
(assert (= (select O 121) -0.924175))
(assert (= (select O 122) -0.883801))
(assert (= (select O 123) -0.876908))
(assert (= (select O 124) -0.829641))
(assert (= (select O 125) -0.743968))
(assert (= (select O 126) -0.941901))
(assert (= (select O 127) -0.925160))
(assert (= (select O 128) -0.861152))
(assert (= (select O 129) -0.431807))
(assert (= (select O 130) -0.335303))
(assert (= (select O 131) -0.662235))
(assert (= (select O 132) -0.819793))
(assert (= (select O 133) -0.903496))
(assert (= (select O 134) -0.878877))
(assert (= (select O 135) -0.811915))
(assert (= (select O 136) -0.868045))
(assert (= (select O 137) -0.930084))
(assert (= (select O 138) -0.482029))
(assert (= (select O 139) -0.469227))
(assert (= (select O 140) -0.841457))
(assert (= (select O 141) -0.705564))
(assert (= (select O 142) -0.956672))
(assert (= (select O 143) -0.801083))
(assert (= (select O 144) -0.905465))
(assert (= (select O 145) -0.932053))
(assert (= (select O 146) -0.847366))
(assert (= (select O 147) -0.762678))
(assert (= (select O 148) -0.818808))
(assert (= (select O 149) -0.431807))
(assert (= (select O 150) -0.841457))
(assert (= (select O 151) -0.401280))
(assert (= (select O 152) 1.000000))
(assert (= (select O 153) -0.918267))
(assert (= (select O 154) -0.889710))
(assert (= (select O 155) -0.889710))
(assert (= (select O 156) -0.945839))
(assert (= (select O 157) -0.767602))
(assert (= (select O 158) -0.910389))
(assert (= (select O 159) -0.875923))
(assert (= (select O 160) -0.896603))
(assert (= (select O 161) -0.823732))
(assert (= (select O 162) -0.703594))
(assert (= (select O 163) -0.452486))
(assert (= (select O 164) -0.736091))
(assert (= (select O 165) -0.777450))
(assert (= (select O 166) -0.904481))
(assert (= (select O 167) -0.765633))
(assert (= (select O 168) -0.339242))
(assert (= (select O 169) -0.772526))
(assert (= (select O 170) 0.037912))
(assert (= (select O 171) -0.755785))
(assert (= (select O 172) -0.753816))
(assert (= (select O 173) -0.866076))
(assert (= (select O 174) -0.873954))
(assert (= (select O 175) -0.596258))
(assert (= (select O 176) -0.825702))
(assert (= (select O 177) -0.983259))
(assert (= (select O 178) -0.550960))
(assert (= (select O 179) -0.295913))
(assert (= (select O 180) -0.693747))
(assert (= (select O 181) -0.329394))
(assert (= (select O 182) 0.058592))
(assert (= (select O 183) -0.592319))
(assert (= (select O 184) -0.858198))
(assert (= (select O 185) -0.837518))
(assert (= (select O 186) -0.691777))
(assert (= (select O 187) -0.864106))
(assert (= (select O 188) -0.661251))
(assert (= (select O 189) -0.448548))
(assert (= (select O 190) -0.832595))
(assert (= (select O 191) -0.788282))
(assert (= (select O 192) -0.862137))
(assert (= (select O 193) -0.935992))
(assert (= (select O 194) -0.715411))
(assert (= (select O 195) -0.697686))
(assert (= (select O 196) -0.757755))
(assert (= (select O 197) -0.905465))
(assert (= (select O 198) -0.749877))
(assert (= (select O 199) -0.921221))
(assert (= (select O 200) -0.433776))
(assert (= (select O 201) -0.720335))
(assert (= (select O 202) -0.532250))
(assert (= (select O 203) -0.400295))
(assert (= (select O 204) -0.538159))
(assert (= (select O 205) -0.626785))
(assert (= (select O 206) -0.960611))
(assert (= (select O 207) -0.754801))
(assert (= (select O 208) -0.600197))
(assert (= (select O 209) -0.790251))
(assert (= (select O 210) -0.719350))
(assert (= (select O 211) -0.789266))
(assert (= (select O 212) -0.641556))
(assert (= (select O 213) -0.795175))
(assert (= (select O 214) -0.718365))
(assert (= (select O 215) -0.836534))
(assert (= (select O 216) -0.669129))
(assert (= (select O 217) -0.598227))
(assert (= (select O 218) -0.827671))
(assert (= (select O 219) -0.876908))
(assert (= (select O 220) -0.650419))
(assert (= (select O 221) -0.829641))
(assert (= (select O 222) -0.706548))
(assert (= (select O 223) -0.868045))
(assert (= (select O 224) 0.395372))
(assert (= (select O 225) -0.878877))
(assert (= (select O 226) -0.792221))
(assert (= (select O 227) -0.975382))
(assert (= (select O 228) -0.767602))
(assert (= (select O 229) -0.879862))
(assert (= (select O 230) -0.984244))
(assert (= (select O 231) -0.283112))
(assert (= (select O 232) -0.267356))
(assert (= (select O 233) -0.882816))
(assert (= (select O 234) -0.758740))
(assert (= (select O 235) -0.962580))
(assert (= (select O 236) -0.823732))
(assert (= (select O 237) -0.924175))
(assert (= (select O 238) -0.799114))
(assert (= (select O 239) -0.618907))
(assert (= (select O 240) -0.876908))
(assert (= (select O 241) -0.310684))
(assert (= (select O 242) -0.853274))
(assert (= (select O 243) -0.886755))
(assert (= (select O 244) -0.773511))
(assert (= (select O 245) -0.600197))
(assert (= (select O 246) -0.825702))
(assert (= (select O 247) -0.963565))
(assert (= (select O 248) -0.724274))
(assert (= (select O 249) -0.298868))
(assert (= (select O 250) -0.952733))
(assert (= (select O 251) -0.823732))
(assert (= (select O 252) -0.862137))
(assert (= (select O 253) -0.778434))
(assert (= (select O 254) -0.884786))
(assert (= (select O 255) -0.646480))
(assert (= (select O 256) -0.930084))
(assert (= (select O 257) -0.935992))
(assert (= (select O 258) -0.657312))
(assert (= (select O 259) -0.675037))
(assert (= (select O 260) -0.400295))
(assert (= (select O 261) -0.890694))
(assert (= (select O 262) -0.871984))
(assert (= (select O 263) -0.944855))
(assert (= (select O 264) -0.853274))
(assert (= (select O 265) -0.914328))
(assert (= (select O 266) -0.852290))
(assert (= (select O 267) -0.400295))
(assert (= (select O 268) -0.893648))
(assert (= (select O 269) -0.546036))
(assert (= (select O 270) -0.448548))
(assert (= (select O 271) -0.054653))
(assert (= (select O 272) -0.992122))
(assert (= (select O 273) -0.885771))
(assert (= (select O 274) -0.911374))
(assert (= (select O 275) -0.861152))
(assert (= (select O 276) -0.815854))
(assert (= (select O 277) -0.771541))
(assert (= (select O 278) -0.928114))
(assert (= (select O 279) -0.815854))
(assert (= (select O 280) -0.390448))
(assert (= (select O 281) -0.947809))
(assert (= (select O 282) -0.696701))
(assert (= (select O 283) -0.848351))
(assert (= (select O 284) -0.997046))
(assert (= (select O 285) -0.780404))
(assert (= (select O 286) -0.878877))
(assert (= (select O 287) -1.000000))
(assert (= (select O 288) -0.720335))
(assert (= (select O 289) -0.840473))
(assert (= (select O 290) -0.905465))
(assert (= (select O 291) -0.271295))
(assert (= (select O 292) -0.779419))
(assert (= (select O 293) -0.883801))
(assert (= (select O 294) -0.645495))
(assert (= (select O 295) -0.650419))
(assert (= (select O 296) -0.805022))
(assert (= (select O 297) -0.801083))
(assert (= (select O 298) -0.877893))
(assert (= (select O 299) -0.937962))


; =====================
; squared-distance well-distributedness (1D, recursive squared distance)
; column-slice encoding
; =====================

; d^2: Real (squared distance threshold)
(define-fun d2 () Real 4.0)

; 1D squared diff sum
(define-fun-rec squared-diff-sum-1d ((p Real) (x Real) (size Int)) Real
  (ite (< size 0)
       0.0
       (+ (* (- p x) (- p x))
          (squared-diff-sum-1d p x (- size 1)))
  )
)

(assert
  (not
    (exists ((p Real))
      (and
        (>= p -1.0)
        (<= p  1.0)
        (forall ((i Int))
          (=>
            (and (>= i 0) (< i m))
            (> (squared-diff-sum-1d p (select O i) (- n 1)) d2)
          )
        )
      )
    )
  )
)

(check-sat)
